001 1 0 1;
011 1 0 1;
011 0 1 10;
011 0 1 10;
011 0 1 10;
011 0 1 10;
011 0 1 10;
001 0 1 10;
001 0 1 10;
011 1 0 10;
011 1 0 10;
001 1 0 10;
101 0 1 3;
101 1 0 3;
101 1 0 3;
101 1 0 3;
101 1 0 3;
101 1 0 3;
101 1 0 7;
111 1 0 7;
101 1 0 7;
101 1 0 7;
111 1 0 7;
101 1 0 7;
101 0 1 7;
111 1 0 6;
111 1 0 6;
111 1 0 6;
100 1 0 6;
100 1 0 6;
111 1 0 6;
011 1 0 4;
011 1 0 4;
011 1 0 4;
011 0 1 4;
111 1 0 2;
111 1 0 2;
111 1 0 1;
001 1 0 2;
001 0 1 2;
011 1 0 1;
111 1 0 4;
111 1 0 4;
111 1 0 4;
001 1 0 4;
001 1 0 1;
001 1 0 1;
011 1 0 2;
011 0 1 2;
100 1 0 5;
100 1 0 5;
101 0 1 5;
101 0 1 5;
101 0 1 5;
001 1 0 4;
001 0 1 4;
001 0 1 4;
001 1 0 4;
101 0 1 3;
101 0 1 3;
001 0 1 3;
100 0 1 2;
010 1 0 2;
001 1 0 1;
011 1 0 1;
101 1 0 16;
101 1 0 16;
101 1 0 16;
101 0 1 16;
101 1 0 16;
101 1 0 16;
101 1 0 16;
101 1 0 16;
101 0 1 16;
101 1 0 16;
101 1 0 16;
101 0 1 16;
101 0 1 16;
101 0 1 16;
100 1 0 16;
100 0 1 16;
111 1 0 1;
111 1 0 1;
111 0 1 14;
111 1 0 14;
111 0 1 14;
111 1 0 14;
111 1 0 14;
111 1 0 14;
111 1 0 14;
111 0 1 14;
111 0 1 14;
111 1 0 14;
111 1 0 14;
001 1 0 14;
111 0 1 14;
110 0 1 14;
111 1 0 13;
010 0 1 13;
111 1 0 13;
111 1 0 13;
010 0 1 13;
111 1 0 13;
111 1 0 13;
111 1 0 13;
111 1 0 13;
110 1 0 13;
010 1 0 13;
010 1 0 13;
010 1 0 13;
001 1 0 3;
101 1 0 3;
101 0 1 3;
111 1 0 63;
111 0 1 63;
111 1 0 63;
111 1 0 63;
111 1 0 63;
111 1 0 63;
111 0 1 63;
111 1 0 63;
111 0 1 63;
111 1 0 63;
111 0 1 63;
111 0 1 63;
111 0 1 63;
111 0 1 63;
111 1 0 63;
111 1 0 63;
111 1 0 63;
111 0 1 63;
111 0 1 63;
111 0 1 63;
111 1 0 63;
111 0 1 63;
111 0 1 63;
111 0 1 63;
111 1 0 63;
111 1 0 63;
111 1 0 63;
111 1 0 63;
111 0 1 63;
111 1 0 63;
111 0 1 63;
111 0 1 63;
111 0 1 63;
111 0 1 63;
111 0 1 63;
111 0 1 63;
111 1 0 63;
011 0 1 63;
011 0 1 63;
111 1 0 63;
111 0 1 63;
111 0 1 63;
111 0 1 63;
011 0 1 63;
111 1 0 63;
111 1 0 63;
111 1 0 63;
111 1 0 63;
111 1 0 63;
011 0 1 63;
111 1 0 63;
111 1 0 63;
111 0 1 63;
111 0 1 63;
111 0 1 63;
111 0 1 63;
111 0 1 63;
111 0 1 63;
111 1 0 63;
111 1 0 63;
111 1 0 63;
011 0 1 63;
010 0 1 63;
010 1 0 1;
010 0 1 1;
010 0 1 3;
010 1 0 3;
010 1 0 3;
010 0 1 1;
010 1 0 1;
110 0 1 2;
110 0 1 2;
110 1 0 4;
110 1 0 4;
110 0 1 4;
010 0 1 4;
100 1 0 1;
100 1 0 3;
100 0 1 3;
100 1 0 3;
100 1 0 1;
100 1 0 1;
100 1 0 2;
100 0 1 2;
100 1 0 1;
100 1 0 1;
100 1 0 1;
100 1 0 3;
100 1 0 3;
100 0 1 3;
100 1 0 2;
100 1 0 2;
100 0 1 3;
100 0 1 3;
100 1 0 3;
100 1 0 1;
100 1 0 1;
100 0 1 1;
100 0 1 1;
100 0 1 1;
100 1 0 1;
